data/lp_files/q3/45_1.lp
\ Model foo
\ LP format - for model browsing. Use MPS format to capture full model detail.
Minimize
  z
Subject To
 allocateEach[1]: x[1,1] + x[2,1] + x[3,1] = 1
 allocateEach[2]: x[1,2] + x[2,2] + x[3,2] = 1
 allocateEach[3]: x[1,3] + x[2,3] + x[3,3] = 1
 allocateEach[4]: x[1,4] + x[2,4] + x[3,4] = 1
 allocateEach[5]: x[1,5] + x[2,5] + x[3,5] = 1
 allocateAllCash: cashProportion[1] + cashProportion[2] + cashProportion[3]
   = 1
 findWorstP[1,2]: z + 0.0541184110834506 cashProportion[1]
   - 0.0541184110834506 cashProportion[2] + 0.2101959086481221 x[1,1]
   + 0.4897175018941443 x[1,2] + 0.1411949345167226 x[1,3]
   + 0.0972507847169607 x[1,4] + 0.00752245914059963 x[1,5]
   - 0.2101959086481221 x[2,1] - 0.4897175018941443 x[2,2]
   - 0.1411949345167226 x[2,3] - 0.0972507847169607 x[2,4]
   - 0.00752245914059963 x[2,5] >= 0
 findWorstP[1,3]: z + 0.0541184110834506 cashProportion[1]
   - 0.0541184110834506 cashProportion[3] + 0.2101959086481221 x[1,1]
   + 0.4897175018941443 x[1,2] + 0.1411949345167226 x[1,3]
   + 0.0972507847169607 x[1,4] + 0.00752245914059963 x[1,5]
   - 0.2101959086481221 x[3,1] - 0.4897175018941443 x[3,2]
   - 0.1411949345167226 x[3,3] - 0.0972507847169607 x[3,4]
   - 0.00752245914059963 x[3,5] >= 0
 findWorstP[2,1]: z - 0.0284640783331436 cashProportion[1]
   + 0.0284640783331436 cashProportion[2] - 0.2845838551747694 x[1,1]
   - 0.1186667425708755 x[1,2] - 0.2081578048502789 x[1,3]
   - 0.1727484914038483 x[1,4] - 0.1873790276670841 x[1,5]
   + 0.2845838551747694 x[2,1] + 0.1186667425708755 x[2,2]
   + 0.2081578048502789 x[2,3] + 0.1727484914038483 x[2,4]
   + 0.1873790276670841 x[2,5] >= 0
 findWorstP[2,3]: z + 0.0284640783331436 cashProportion[2]
   - 0.0284640783331436 cashProportion[3] + 0.2845838551747694 x[2,1]
   + 0.1186667425708755 x[2,2] + 0.2081578048502789 x[2,3]
   + 0.1727484914038483 x[2,4] + 0.1873790276670841 x[2,5]
   - 0.2845838551747694 x[3,1] - 0.1186667425708755 x[3,2]
   - 0.2081578048502789 x[3,3] - 0.1727484914038483 x[3,4]
   - 0.1873790276670841 x[3,5] >= 0
 findWorstP[3,1]: z - 0.0330665961245949 cashProportion[1]
   + 0.0330665961245949 cashProportion[3] - 0.2325243039481516 x[1,1]
   - 0.2131803452152636 x[1,2] - 0.0133589048343364 x[1,3]
   - 0.2393029561536935 x[1,4] - 0.26856689372396 x[1,5]
   + 0.2325243039481516 x[3,1] + 0.2131803452152636 x[3,2]
   + 0.0133589048343364 x[3,3] + 0.2393029561536935 x[3,4]
   + 0.26856689372396 x[3,5] >= 0
 findWorstP[3,2]: z - 0.0330665961245949 cashProportion[2]
   + 0.0330665961245949 cashProportion[3] - 0.2325243039481516 x[2,1]
   - 0.2131803452152636 x[2,2] - 0.0133589048343364 x[2,3]
   - 0.2393029561536935 x[2,4] - 0.26856689372396 x[2,5]
   + 0.2325243039481516 x[3,1] + 0.2131803452152636 x[3,2]
   + 0.0133589048343364 x[3,3] + 0.2393029561536935 x[3,4]
   + 0.26856689372396 x[3,5] >= 0
Bounds
 z <= 1
 -infinity <= cashProportion[1] <= 1
 -infinity <= cashProportion[2] <= 1
 -infinity <= cashProportion[3] <= 1
Binaries
 x[1,1] x[1,2] x[1,3] x[1,4] x[1,5] x[2,1] x[2,2] x[2,3] x[2,4] x[2,5]
 x[3,1] x[3,2] x[3,3] x[3,4] x[3,5]
End
